;test regex (http):\\/\\/[\\w\\-_]+(\\.[\\w\\-_]+)+(\\.[\\w\\-_]+)(\\/)([\\w\\-\\.,@?^=%&amp;:/~\\+#]*[\\w\\-\\@?^=%&amp;/~\\+#]+)(\\/)((\\d{8}-)|(\\d{9}-)|(\\d{10}-)|(\\d{11}-))+([\\w\\-\\.,@?^=%&amp;:/~\\+#]*[\\w\\-\\@?+html^])?
(declare-const X String)
(assert (str.in_re X (re.++ (re.++ (str.to_re "h") (re.++ (str.to_re "t") (re.++ (str.to_re "t") (str.to_re "p")))) (re.++ (str.to_re ":") (re.++ (str.to_re "\\") (re.++ (str.to_re "/") (re.++ (str.to_re "\\") (re.++ (str.to_re "/") (re.++ (re.+ (re.union (str.to_re "\\") (re.union (str.to_re "w") (re.range "\\" "_")))) (re.++ (re.+ (re.++ (str.to_re "\\") (re.++ (re.diff re.allchar (str.to_re "\n")) (re.+ (re.union (str.to_re "\\") (re.union (str.to_re "w") (re.range "\\" "_"))))))) (re.++ (re.++ (str.to_re "\\") (re.++ (re.diff re.allchar (str.to_re "\n")) (re.+ (re.union (str.to_re "\\") (re.union (str.to_re "w") (re.range "\\" "_")))))) (re.++ (re.++ (str.to_re "\\") (str.to_re "/")) (re.++ (re.++ (re.* (re.union (str.to_re "\\") (re.union (str.to_re "w") (re.union (re.range "\\" "\\") (re.union (str.to_re ".") (re.union (str.to_re ",") (re.union (str.to_re "@") (re.union (str.to_re "?") (re.union (str.to_re "^") (re.union (str.to_re "=") (re.union (str.to_re "%") (re.union (str.to_re "&") (re.union (str.to_re "a") (re.union (str.to_re "m") (re.union (str.to_re "p") (re.union (str.to_re ";") (re.union (str.to_re ":") (re.union (str.to_re "/") (re.union (str.to_re "~") (re.union (str.to_re "\\") (re.union (str.to_re "+") (str.to_re "#")))))))))))))))))))))) (re.+ (re.union (str.to_re "\\") (re.union (str.to_re "w") (re.union (re.range "\\" "\\") (re.union (str.to_re "@") (re.union (str.to_re "?") (re.union (str.to_re "^") (re.union (str.to_re "=") (re.union (str.to_re "%") (re.union (str.to_re "&") (re.union (str.to_re "a") (re.union (str.to_re "m") (re.union (str.to_re "p") (re.union (str.to_re ";") (re.union (str.to_re "/") (re.union (str.to_re "~") (re.union (str.to_re "\\") (re.union (str.to_re "+") (str.to_re "#")))))))))))))))))))) (re.++ (re.++ (str.to_re "\\") (str.to_re "/")) (re.++ (re.+ (re.union (re.union (re.union (re.++ (str.to_re "\\") (re.++ ((_ re.loop 8 8) (str.to_re "d")) (str.to_re "-"))) (re.++ (str.to_re "\\") (re.++ ((_ re.loop 9 9) (str.to_re "d")) (str.to_re "-")))) (re.++ (str.to_re "\\") (re.++ ((_ re.loop 10 10) (str.to_re "d")) (str.to_re "-")))) (re.++ (str.to_re "\\") (re.++ ((_ re.loop 11 11) (str.to_re "d")) (str.to_re "-"))))) (re.opt (re.++ (re.* (re.union (str.to_re "\\") (re.union (str.to_re "w") (re.union (re.range "\\" "\\") (re.union (str.to_re ".") (re.union (str.to_re ",") (re.union (str.to_re "@") (re.union (str.to_re "?") (re.union (str.to_re "^") (re.union (str.to_re "=") (re.union (str.to_re "%") (re.union (str.to_re "&") (re.union (str.to_re "a") (re.union (str.to_re "m") (re.union (str.to_re "p") (re.union (str.to_re ";") (re.union (str.to_re ":") (re.union (str.to_re "/") (re.union (str.to_re "~") (re.union (str.to_re "\\") (re.union (str.to_re "+") (str.to_re "#")))))))))))))))))))))) (re.union (str.to_re "\\") (re.union (str.to_re "w") (re.union (re.range "\\" "\\") (re.union (str.to_re "@") (re.union (str.to_re "?") (re.union (str.to_re "+") (re.union (str.to_re "h") (re.union (str.to_re "t") (re.union (str.to_re "m") (re.union (str.to_re "l") (str.to_re "^"))))))))))))))))))))))))))))
; sanitize danger characters:  < > ' " &
(assert (not (str.in_re X (re.++ re.all (re.union (str.to_re "\u{3c}") (str.to_re "\u{3e}") (str.to_re "\u{27}") (str.to_re "\u{22}") (str.to_re "\u{26}")) re.all))))
(assert (< 9 (str.len X)))
(check-sat)
(get-model)